%%%mzn-stat: initTime=0.038807648
%%%mzn-stat: objective=181
%%%mzn-stat: nodes=2216597
%%%mzn-stat: restarts=4081
%%%mzn-stat: peakDepth=1103
%%%mzn-stat: solveTime=652.083655872
%%%mzn-stat: variables=1828
%%%mzn-stat: propagators=12645
%%%mzn-stat: failures=1125251
%%%mzn-stat: propagations=726861548
%%%mzn-stat: nogoods=1125251
%%%mzn-stat: AverageConflictSize=12.335941936510165
%%%mzn-stat: NumUnitNogoodsLearned=128
%%%mzn-stat: AverageLearnedNogoodLength=32.54099929704572
%%%mzn-stat: AverageBacktrackAmount=0
%%%mzn-stat: AverageLbd=12.042758460112456
%%%mzn-stat-end
maxleg = 181;
succ = array1d(1..150,[61, 65, 109, 121, 59, 107, 29, 111, 25, 72, 90, 83, 147, 46, 100, 7, 78, 33, 60, 143, 41, 85, 52, 86, 6, 49, 148, 135, 116, 102, 136, 47, 115, 18, 92, 44, 80, 106, 146, 93, 26, 66, 70, 64, 110, 118, 3, 62, 97, 20, 126, 19, 43, 127, 101, 40, 14, 73, 112, 105, 88, 81, 32, 95, 79, 67, 145, 128, 35, 133, 138, 42, 34, 56, 113, 8, 132, 140, 141, 134, 38, 137, 77, 27, 119, 91, 74, 57, 10, 120, 142, 63, 129, 53, 71, 28, 149, 139, 150, 99, 122, 84, 114, 39, 55, 75, 54, 30, 51, 96, 125, 123, 94, 22, 48, 76, 69, 37, 1, 98, 108, 130, 4, 2, 124, 24, 15, 50, 13, 5, 82, 144, 11, 17, 103, 89, 58, 87, 117, 16, 31, 68, 23, 45, 21, 12, 9, 104, 36, 131]);
% time elapsed: 655.65 s
----------
%%%mzn-stat: initTime=0.038807648
%%%mzn-stat: objective=180
%%%mzn-stat: nodes=2220512
%%%mzn-stat: restarts=4085
%%%mzn-stat: peakDepth=1305
%%%mzn-stat: solveTime=652.489815072
%%%mzn-stat: variables=1828
%%%mzn-stat: propagators=12645
%%%mzn-stat: failures=1125661
%%%mzn-stat: propagations=727185093
%%%mzn-stat: nogoods=1125661
%%%mzn-stat: AverageConflictSize=12.33720098679798
%%%mzn-stat: NumUnitNogoodsLearned=128
%%%mzn-stat: AverageLearnedNogoodLength=32.544656872717454
%%%mzn-stat: AverageBacktrackAmount=0
%%%mzn-stat: AverageLbd=12.04442367639991
%%%mzn-stat-end
maxleg = 180;
succ = array1d(1..150,[61, 65, 109, 121, 59, 107, 29, 111, 25, 12, 92, 90, 147, 46, 100, 7, 78, 33, 60, 137, 41, 85, 58, 86, 6, 49, 148, 135, 116, 102, 136, 47, 115, 18, 120, 44, 80, 106, 83, 93, 26, 66, 70, 64, 110, 118, 3, 62, 97, 20, 139, 19, 43, 127, 101, 40, 14, 52, 112, 73, 88, 81, 32, 95, 79, 67, 145, 128, 35, 105, 138, 42, 34, 56, 113, 8, 132, 140, 141, 134, 38, 91, 77, 27, 119, 131, 74, 57, 10, 98, 142, 63, 129, 53, 71, 28, 149, 133, 150, 99, 122, 84, 114, 39, 55, 75, 54, 30, 51, 96, 125, 123, 94, 22, 48, 76, 69, 37, 1, 146, 108, 130, 4, 2, 124, 24, 15, 50, 13, 5, 82, 144, 11, 17, 103, 89, 143, 87, 117, 16, 31, 68, 23, 45, 21, 72, 9, 104, 36, 126]);
% time elapsed: 656.05 s
----------
%%%mzn-stat: initTime=0.038807648
%%%mzn-stat: objective=179
%%%mzn-stat: nodes=2223289
%%%mzn-stat: restarts=4086
%%%mzn-stat: peakDepth=1305
%%%mzn-stat: solveTime=653.348956134
%%%mzn-stat: variables=1828
%%%mzn-stat: propagators=12645
%%%mzn-stat: failures=1126818
%%%mzn-stat: propagations=727766824
%%%mzn-stat: nogoods=1126818
%%%mzn-stat: AverageConflictSize=12.35332946403057
%%%mzn-stat: NumUnitNogoodsLearned=128
%%%mzn-stat: AverageLearnedNogoodLength=32.57517540543371
%%%mzn-stat: AverageBacktrackAmount=0
%%%mzn-stat: AverageLbd=12.04354651771626
%%%mzn-stat-end
maxleg = 179;
succ = array1d(1..150,[61, 65, 109, 121, 59, 107, 29, 111, 25, 12, 92, 90, 147, 46, 100, 7, 78, 33, 60, 137, 41, 85, 58, 86, 6, 49, 148, 135, 116, 102, 136, 47, 115, 18, 120, 44, 80, 106, 83, 93, 26, 66, 70, 64, 110, 118, 3, 62, 97, 20, 139, 19, 43, 127, 101, 40, 14, 52, 112, 73, 88, 81, 32, 95, 79, 67, 145, 128, 35, 105, 138, 42, 34, 56, 113, 8, 132, 140, 141, 134, 38, 91, 77, 27, 119, 131, 74, 57, 10, 98, 142, 63, 129, 53, 71, 28, 149, 133, 150, 99, 122, 84, 114, 39, 55, 75, 54, 30, 51, 96, 125, 123, 94, 22, 48, 76, 69, 37, 1, 146, 108, 130, 4, 2, 124, 24, 15, 50, 13, 5, 82, 144, 11, 17, 103, 89, 143, 87, 117, 16, 31, 68, 23, 45, 21, 72, 9, 104, 36, 126]);
% time elapsed: 656.92 s
----------
%%%mzn-stat: initTime=0.038807648
%%%mzn-stat: objective=178
%%%mzn-stat: nodes=2224890
%%%mzn-stat: restarts=4087
%%%mzn-stat: peakDepth=1308
%%%mzn-stat: solveTime=653.491983401
%%%mzn-stat: variables=1828
%%%mzn-stat: propagators=12645
%%%mzn-stat: failures=1126981
%%%mzn-stat: propagations=727921149
%%%mzn-stat: nogoods=1126981
%%%mzn-stat: AverageConflictSize=12.352851556503614
%%%mzn-stat: NumUnitNogoodsLearned=128
%%%mzn-stat: AverageLearnedNogoodLength=32.57412059298249
%%%mzn-stat: AverageBacktrackAmount=0
%%%mzn-stat: AverageLbd=12.043710586070217
%%%mzn-stat-end
maxleg = 178;
succ = array1d(1..150,[61, 65, 109, 121, 59, 107, 29, 111, 25, 12, 92, 90, 147, 46, 100, 7, 78, 33, 60, 137, 41, 85, 58, 86, 6, 49, 148, 135, 116, 102, 136, 47, 115, 18, 120, 44, 80, 106, 83, 93, 26, 66, 70, 64, 110, 118, 3, 62, 97, 20, 139, 19, 43, 127, 101, 40, 14, 52, 112, 73, 88, 81, 32, 95, 79, 67, 145, 128, 35, 105, 138, 42, 34, 56, 113, 8, 132, 140, 141, 134, 38, 91, 77, 27, 119, 131, 74, 57, 10, 98, 142, 63, 129, 53, 71, 28, 149, 133, 150, 99, 122, 84, 114, 39, 55, 75, 54, 30, 51, 96, 125, 123, 94, 22, 48, 76, 69, 37, 1, 146, 108, 130, 4, 2, 124, 24, 15, 50, 13, 5, 82, 144, 11, 17, 103, 89, 143, 87, 117, 16, 31, 68, 23, 45, 21, 72, 9, 104, 36, 126]);
% time elapsed: 657.07 s
----------
%%%mzn-stat: initTime=0.038807648
%%%mzn-stat: objective=177
%%%mzn-stat: nodes=2228589
%%%mzn-stat: restarts=4088
%%%mzn-stat: peakDepth=1308
%%%mzn-stat: solveTime=654.687088955
%%%mzn-stat: variables=1828
%%%mzn-stat: propagators=12645
%%%mzn-stat: failures=1128662
%%%mzn-stat: propagations=728699304
%%%mzn-stat: nogoods=1128662
%%%mzn-stat: AverageConflictSize=12.379898499284995
%%%mzn-stat: NumUnitNogoodsLearned=128
%%%mzn-stat: AverageLearnedNogoodLength=32.62753153734245
%%%mzn-stat: AverageBacktrackAmount=0
%%%mzn-stat: AverageLbd=12.041679439903177
%%%mzn-stat-end
maxleg = 177;
succ = array1d(1..150,[61, 65, 109, 121, 59, 107, 29, 111, 25, 72, 92, 90, 147, 46, 100, 7, 78, 33, 60, 137, 41, 85, 58, 86, 6, 49, 148, 135, 116, 102, 136, 47, 115, 18, 120, 44, 80, 106, 83, 93, 26, 66, 146, 64, 110, 118, 3, 62, 97, 20, 139, 19, 43, 127, 101, 40, 14, 52, 112, 73, 88, 81, 32, 95, 79, 67, 145, 128, 105, 55, 138, 42, 34, 56, 113, 8, 132, 140, 141, 134, 38, 91, 77, 27, 119, 131, 74, 57, 10, 35, 142, 63, 129, 53, 71, 28, 149, 133, 150, 99, 122, 84, 114, 39, 70, 75, 54, 30, 51, 96, 125, 123, 94, 22, 48, 76, 69, 37, 1, 98, 108, 130, 4, 2, 124, 24, 15, 50, 13, 5, 82, 144, 11, 17, 103, 89, 143, 87, 117, 16, 31, 68, 23, 45, 21, 12, 9, 104, 36, 126]);
% time elapsed: 658.28 s
----------
%%%mzn-stat: initTime=0.038807648
%%%mzn-stat: objective=176
%%%mzn-stat: nodes=2230186
%%%mzn-stat: restarts=4089
%%%mzn-stat: peakDepth=1360
%%%mzn-stat: solveTime=654.786307384
%%%mzn-stat: variables=1828
%%%mzn-stat: propagators=12645
%%%mzn-stat: failures=1128727
%%%mzn-stat: propagations=728786228
%%%mzn-stat: nogoods=1128727
%%%mzn-stat: AverageConflictSize=12.381338445877525
%%%mzn-stat: NumUnitNogoodsLearned=128
%%%mzn-stat: AverageLearnedNogoodLength=32.62936742011133
%%%mzn-stat: AverageBacktrackAmount=0
%%%mzn-stat: AverageLbd=12.04182410804384
%%%mzn-stat-end
maxleg = 176;
succ = array1d(1..150,[61, 65, 109, 121, 59, 107, 29, 111, 25, 72, 92, 90, 147, 46, 100, 7, 78, 33, 60, 137, 41, 85, 58, 86, 6, 49, 148, 135, 116, 102, 136, 47, 115, 18, 120, 44, 80, 106, 83, 93, 26, 66, 146, 64, 110, 118, 3, 62, 97, 20, 139, 19, 43, 127, 101, 40, 14, 52, 112, 73, 88, 81, 32, 95, 79, 67, 145, 128, 105, 55, 138, 42, 34, 56, 113, 8, 132, 140, 141, 134, 38, 91, 77, 27, 119, 131, 74, 57, 10, 35, 142, 63, 129, 53, 71, 28, 149, 133, 150, 99, 122, 84, 114, 39, 70, 75, 54, 30, 51, 96, 125, 123, 94, 22, 48, 76, 69, 37, 1, 98, 108, 130, 4, 2, 124, 24, 15, 50, 13, 5, 82, 144, 11, 17, 103, 89, 143, 87, 117, 16, 31, 68, 23, 45, 21, 12, 9, 104, 36, 126]);
% time elapsed: 658.38 s
----------
%%%mzn-stat: initTime=0.038807648
%%%mzn-stat: objective=175
%%%mzn-stat: nodes=2231781
%%%mzn-stat: restarts=4090
%%%mzn-stat: peakDepth=1360
%%%mzn-stat: solveTime=654.876896697
%%%mzn-stat: variables=1828
%%%mzn-stat: propagators=12645
%%%mzn-stat: failures=1128780
%%%mzn-stat: propagations=728861895
%%%mzn-stat: nogoods=1128780
%%%mzn-stat: AverageConflictSize=12.381831712113964
%%%mzn-stat: NumUnitNogoodsLearned=128
%%%mzn-stat: AverageLearnedNogoodLength=32.630925423909
%%%mzn-stat: AverageBacktrackAmount=0
%%%mzn-stat: AverageLbd=12.042084374280197
%%%mzn-stat-end
maxleg = 175;
succ = array1d(1..150,[61, 65, 109, 121, 59, 107, 29, 111, 25, 72, 92, 90, 147, 46, 100, 7, 78, 33, 60, 137, 41, 85, 58, 86, 6, 49, 148, 135, 116, 102, 136, 47, 115, 18, 120, 44, 80, 106, 83, 93, 26, 66, 146, 64, 110, 118, 3, 62, 97, 20, 139, 19, 43, 127, 101, 40, 14, 52, 112, 73, 88, 81, 32, 95, 79, 67, 145, 128, 105, 55, 138, 42, 34, 56, 113, 8, 132, 140, 141, 134, 38, 91, 77, 27, 119, 131, 74, 57, 10, 35, 142, 63, 129, 53, 71, 28, 149, 133, 150, 99, 122, 84, 114, 39, 70, 75, 54, 30, 51, 96, 125, 123, 94, 22, 48, 76, 69, 37, 1, 98, 108, 130, 4, 2, 124, 24, 15, 50, 13, 5, 82, 144, 11, 17, 103, 89, 143, 87, 117, 16, 31, 68, 23, 45, 21, 12, 9, 104, 36, 126]);
% time elapsed: 658.48 s
----------
%%%mzn-stat: initTime=0.038807648
%%%mzn-stat: objective=174
%%%mzn-stat: nodes=2233375
%%%mzn-stat: restarts=4091
%%%mzn-stat: peakDepth=1360
%%%mzn-stat: solveTime=654.965093134
%%%mzn-stat: variables=1828
%%%mzn-stat: propagators=12645
%%%mzn-stat: failures=1128842
%%%mzn-stat: propagations=728936011
%%%mzn-stat: nogoods=1128842
%%%mzn-stat: AverageConflictSize=12.381462596182637
%%%mzn-stat: NumUnitNogoodsLearned=128
%%%mzn-stat: AverageLearnedNogoodLength=32.630578061411605
%%%mzn-stat: AverageBacktrackAmount=0
%%%mzn-stat: AverageLbd=12.042202540302362
%%%mzn-stat-end
maxleg = 174;
succ = array1d(1..150,[61, 65, 109, 121, 59, 107, 29, 111, 25, 72, 92, 90, 147, 46, 100, 7, 78, 33, 60, 137, 41, 85, 58, 86, 6, 49, 148, 135, 116, 102, 136, 47, 115, 18, 120, 44, 80, 106, 83, 93, 26, 66, 146, 64, 110, 118, 3, 62, 97, 20, 139, 19, 43, 127, 101, 40, 14, 52, 112, 73, 88, 81, 32, 95, 79, 67, 145, 128, 105, 55, 138, 42, 34, 56, 113, 8, 132, 140, 141, 134, 38, 91, 77, 27, 119, 131, 74, 57, 10, 35, 142, 63, 129, 53, 71, 28, 149, 133, 150, 99, 122, 84, 114, 39, 70, 75, 54, 30, 51, 96, 125, 123, 94, 22, 48, 76, 69, 37, 1, 98, 108, 130, 4, 2, 124, 24, 15, 50, 13, 5, 82, 144, 11, 17, 103, 89, 143, 87, 117, 16, 31, 68, 23, 45, 21, 12, 9, 104, 36, 126]);
% time elapsed: 658.57 s
----------
%%%mzn-stat: initTime=0.038807648
%%%mzn-stat: objective=173
%%%mzn-stat: nodes=2235255
%%%mzn-stat: restarts=4092
%%%mzn-stat: peakDepth=1360
%%%mzn-stat: solveTime=655.133154752
%%%mzn-stat: variables=1828
%%%mzn-stat: propagators=12645
%%%mzn-stat: failures=1129062
%%%mzn-stat: propagations=729147586
%%%mzn-stat: nogoods=1129062
%%%mzn-stat: AverageConflictSize=12.381283755896488
%%%mzn-stat: NumUnitNogoodsLearned=128
%%%mzn-stat: AverageLearnedNogoodLength=32.63000348962236
%%%mzn-stat: AverageBacktrackAmount=0
%%%mzn-stat: AverageLbd=12.042420168245854
%%%mzn-stat-end
maxleg = 173;
succ = array1d(1..150,[61, 65, 109, 121, 59, 107, 29, 111, 25, 72, 92, 90, 147, 46, 100, 7, 78, 33, 60, 137, 41, 85, 58, 86, 6, 49, 148, 135, 116, 102, 136, 47, 115, 18, 120, 44, 80, 106, 83, 93, 26, 66, 146, 64, 110, 118, 3, 62, 97, 20, 139, 19, 43, 127, 101, 40, 14, 52, 112, 73, 88, 81, 32, 95, 79, 67, 145, 128, 105, 55, 138, 42, 34, 56, 113, 8, 132, 140, 141, 134, 38, 91, 77, 27, 119, 131, 74, 57, 10, 35, 142, 63, 129, 53, 71, 28, 149, 133, 150, 99, 122, 84, 114, 39, 70, 75, 54, 30, 51, 96, 125, 123, 94, 22, 48, 76, 69, 37, 1, 98, 108, 130, 4, 2, 124, 24, 15, 50, 13, 5, 82, 144, 11, 17, 103, 89, 143, 87, 117, 16, 31, 68, 23, 45, 21, 12, 9, 104, 36, 126]);
% time elapsed: 658.75 s
----------
%%%mzn-stat: initTime=0.038807648
%%%mzn-stat: objective=172
%%%mzn-stat: nodes=2237052
%%%mzn-stat: restarts=4093
%%%mzn-stat: peakDepth=1360
%%%mzn-stat: solveTime=655.307054979
%%%mzn-stat: variables=1828
%%%mzn-stat: propagators=12645
%%%mzn-stat: failures=1129189
%%%mzn-stat: propagations=729290818
%%%mzn-stat: nogoods=1129189
%%%mzn-stat: AverageConflictSize=12.382472730428653
%%%mzn-stat: NumUnitNogoodsLearned=128
%%%mzn-stat: AverageLearnedNogoodLength=32.63173835380968
%%%mzn-stat: AverageBacktrackAmount=0
%%%mzn-stat: AverageLbd=12.04262616798428
%%%mzn-stat-end
maxleg = 172;
succ = array1d(1..150,[61, 65, 109, 121, 59, 107, 29, 111, 25, 72, 92, 90, 147, 46, 100, 7, 78, 33, 60, 137, 41, 85, 58, 86, 6, 49, 148, 135, 116, 102, 136, 47, 115, 18, 120, 44, 80, 106, 83, 93, 26, 66, 146, 64, 110, 118, 3, 62, 97, 20, 139, 19, 43, 127, 101, 40, 14, 52, 112, 73, 88, 81, 32, 95, 79, 67, 145, 128, 105, 55, 138, 42, 34, 56, 113, 8, 132, 140, 141, 134, 38, 91, 77, 27, 119, 131, 74, 57, 10, 35, 142, 63, 129, 53, 71, 28, 149, 133, 150, 99, 122, 84, 114, 39, 70, 75, 54, 30, 51, 96, 125, 123, 94, 22, 48, 76, 69, 37, 1, 98, 108, 130, 4, 2, 124, 24, 15, 50, 13, 5, 82, 144, 11, 17, 103, 89, 143, 87, 117, 16, 31, 68, 23, 45, 21, 12, 9, 104, 36, 126]);
% time elapsed: 658.93 s
----------
%%%mzn-stat: initTime=0.038807648
%%%mzn-stat: objective=171
%%%mzn-stat: nodes=2239871
%%%mzn-stat: restarts=4094
%%%mzn-stat: peakDepth=1360
%%%mzn-stat: solveTime=655.888188563
%%%mzn-stat: variables=1828
%%%mzn-stat: propagators=12645
%%%mzn-stat: failures=1130075
%%%mzn-stat: propagations=729965209
%%%mzn-stat: nogoods=1130075
%%%mzn-stat: AverageConflictSize=12.379620821626883
%%%mzn-stat: NumUnitNogoodsLearned=128
%%%mzn-stat: AverageLearnedNogoodLength=32.629819259783645
%%%mzn-stat: AverageBacktrackAmount=0
%%%mzn-stat: AverageLbd=12.042771497466982
%%%mzn-stat-end
maxleg = 171;
succ = array1d(1..150,[61, 65, 109, 121, 59, 107, 29, 111, 25, 72, 92, 90, 147, 46, 100, 7, 78, 33, 60, 137, 41, 85, 58, 86, 6, 49, 148, 135, 116, 102, 136, 47, 115, 18, 120, 44, 80, 106, 83, 93, 26, 66, 146, 64, 110, 118, 3, 62, 97, 20, 139, 19, 43, 127, 101, 40, 14, 52, 112, 73, 88, 81, 32, 95, 79, 67, 145, 128, 105, 55, 138, 42, 34, 56, 113, 8, 132, 140, 141, 134, 38, 91, 77, 27, 119, 131, 74, 57, 10, 35, 142, 63, 129, 53, 71, 28, 149, 133, 150, 99, 122, 84, 114, 39, 70, 75, 54, 30, 51, 96, 125, 123, 94, 22, 48, 76, 69, 37, 1, 98, 108, 130, 4, 2, 124, 24, 15, 50, 13, 5, 82, 144, 11, 17, 103, 89, 143, 87, 117, 16, 31, 68, 23, 45, 21, 12, 9, 104, 36, 126]);
% time elapsed: 659.52 s
----------
%%%mzn-stat: initTime=0.038807648
%%%mzn-stat: objective=170
%%%mzn-stat: nodes=2242638
%%%mzn-stat: restarts=4095
%%%mzn-stat: peakDepth=1360
%%%mzn-stat: solveTime=656.417924642
%%%mzn-stat: variables=1828
%%%mzn-stat: propagators=12645
%%%mzn-stat: failures=1131015
%%%mzn-stat: propagations=730445233
%%%mzn-stat: nogoods=1131015
%%%mzn-stat: AverageConflictSize=12.378529904554759
%%%mzn-stat: NumUnitNogoodsLearned=128
%%%mzn-stat: AverageLearnedNogoodLength=32.62674058257406
%%%mzn-stat: AverageBacktrackAmount=0
%%%mzn-stat: AverageLbd=12.041009182017921
%%%mzn-stat-end
maxleg = 170;
succ = array1d(1..150,[61, 65, 109, 121, 59, 107, 29, 111, 25, 72, 92, 90, 147, 46, 100, 7, 78, 33, 60, 137, 41, 85, 58, 86, 6, 49, 148, 135, 116, 102, 136, 47, 115, 18, 120, 44, 80, 106, 83, 93, 26, 66, 146, 64, 110, 118, 3, 62, 97, 20, 139, 19, 43, 127, 101, 40, 14, 52, 112, 73, 88, 81, 32, 95, 79, 67, 145, 128, 105, 55, 138, 42, 34, 56, 113, 8, 132, 140, 141, 134, 38, 91, 77, 27, 119, 131, 74, 57, 10, 35, 142, 63, 129, 53, 71, 28, 149, 133, 150, 99, 122, 84, 114, 39, 70, 75, 54, 30, 51, 96, 125, 123, 94, 22, 48, 76, 69, 37, 1, 98, 108, 130, 4, 2, 124, 24, 15, 50, 13, 5, 82, 144, 11, 17, 103, 89, 143, 87, 117, 16, 31, 68, 23, 45, 21, 12, 9, 104, 36, 126]);
% time elapsed: 660.06 s
----------
%%%mzn-stat: initTime=0.038807648
%%%mzn-stat: objective=169
%%%mzn-stat: nodes=2244147
%%%mzn-stat: restarts=4096
%%%mzn-stat: peakDepth=1360
%%%mzn-stat: solveTime=656.508381598
%%%mzn-stat: variables=1828
%%%mzn-stat: propagators=12645
%%%mzn-stat: failures=1131066
%%%mzn-stat: propagations=730511927
%%%mzn-stat: nogoods=1131066
%%%mzn-stat: AverageConflictSize=12.378894777139442
%%%mzn-stat: NumUnitNogoodsLearned=128
%%%mzn-stat: AverageLearnedNogoodLength=32.62730910486214
%%%mzn-stat: AverageBacktrackAmount=0
%%%mzn-stat: AverageLbd=12.041210680897489
%%%mzn-stat-end
maxleg = 169;
succ = array1d(1..150,[61, 65, 109, 121, 59, 107, 29, 111, 25, 72, 92, 90, 147, 46, 100, 7, 78, 33, 60, 137, 41, 85, 58, 86, 6, 49, 148, 135, 116, 102, 136, 47, 115, 18, 120, 44, 80, 106, 83, 93, 26, 66, 146, 64, 110, 118, 3, 62, 97, 20, 139, 19, 43, 127, 101, 40, 14, 52, 112, 73, 88, 81, 32, 95, 79, 67, 145, 128, 105, 55, 138, 42, 34, 56, 113, 8, 132, 140, 141, 134, 38, 91, 77, 27, 119, 131, 74, 57, 10, 35, 142, 63, 129, 53, 71, 28, 149, 133, 150, 99, 122, 84, 114, 39, 70, 75, 54, 30, 51, 96, 125, 123, 94, 22, 48, 76, 69, 37, 1, 98, 108, 130, 4, 2, 124, 24, 15, 50, 13, 5, 82, 144, 11, 17, 103, 89, 143, 87, 117, 16, 31, 68, 23, 45, 21, 12, 9, 104, 36, 126]);
% time elapsed: 660.15 s
----------
%%%mzn-stat: initTime=0.038807648
%%%mzn-stat: objective=165
%%%mzn-stat: nodes=2248409
%%%mzn-stat: restarts=4097
%%%mzn-stat: peakDepth=1360
%%%mzn-stat: solveTime=657.904680815
%%%mzn-stat: variables=1828
%%%mzn-stat: propagators=12645
%%%mzn-stat: failures=1133218
%%%mzn-stat: propagations=731582627
%%%mzn-stat: nogoods=1133218
%%%mzn-stat: AverageConflictSize=12.39941476397304
%%%mzn-stat: NumUnitNogoodsLearned=128
%%%mzn-stat: AverageLearnedNogoodLength=32.65502842348074
%%%mzn-stat: AverageBacktrackAmount=0
%%%mzn-stat: AverageLbd=12.03912221655498
%%%mzn-stat-end
maxleg = 165;
succ = array1d(1..150,[61, 65, 109, 121, 59, 107, 29, 37, 25, 72, 92, 90, 147, 46, 100, 7, 78, 33, 60, 137, 41, 85, 58, 86, 6, 49, 148, 135, 116, 102, 136, 47, 115, 18, 120, 44, 80, 106, 83, 93, 26, 66, 146, 64, 110, 118, 3, 62, 97, 20, 139, 19, 43, 127, 101, 40, 14, 52, 112, 73, 88, 81, 32, 95, 79, 67, 145, 128, 105, 55, 138, 42, 34, 56, 113, 111, 132, 140, 141, 134, 38, 91, 77, 27, 119, 131, 74, 57, 10, 35, 142, 63, 129, 53, 71, 28, 149, 133, 150, 99, 122, 84, 114, 39, 70, 75, 54, 30, 51, 96, 125, 123, 94, 22, 48, 76, 69, 8, 1, 98, 108, 130, 4, 2, 124, 24, 15, 50, 13, 5, 82, 144, 11, 17, 103, 89, 143, 87, 117, 16, 31, 68, 23, 45, 21, 12, 9, 104, 36, 126]);
% time elapsed: 661.56 s
----------
%%%mzn-stat: initTime=0.038807648
%%%mzn-stat: objective=165
%%%mzn-stat: nodes=6461513
%%%mzn-stat: restarts=11852
%%%mzn-stat: peakDepth=1360
%%%mzn-stat: solveTime=1796.517047174
%%%mzn-stat: variables=1828
%%%mzn-stat: propagators=12645
%%%mzn-stat: failures=2915513
%%%mzn-stat: propagations=1882305589
%%%mzn-stat: nogoods=2915513
%%%mzn-stat: AverageConflictSize=11.57037955241496
%%%mzn-stat: NumUnitNogoodsLearned=128
%%%mzn-stat: AverageLearnedNogoodLength=29.257432225477988
%%%mzn-stat: AverageBacktrackAmount=0
%%%mzn-stat: AverageLbd=12.57286933723156
%%%mzn-stat-end
